
Gurobi 10.0.2 (linux64, Python) logging started Wed Aug 23 00:18:04 2023

Set parameter WLSAccessID
Set parameter WLSSecret
Set parameter LicenseID to value 2404702
Set parameter LogFile to value "gurobi.log"
Academic license - for non-commercial use only - registered to naman.nayal@iiitg.ac.in
